Instance Name : r203
Date : 2022-07-18
Solution
Route 1 : 28 50 33 81 65 34 29 24 39 67 23 72 21 40 53 87 57 41 22 75 56 74 73 2 13 97 37 98 100 91 16 86 17 61 93 59 95 94 58
Route 2 : 52 18 60 5 83 45 46 36 64 11 62 31 69 88 30 76 9 78 79 3 68 54 4 55 25 80 77 12 26
Route 3 : 27 89 92 42 15 43 14 38 44 85 99 96 6 84 8 82 48 47 49 19 7 10 63 90 32 20 66 71 35 51 70 1
